proyfinal/src/viki/013/andrea/andrea-localstore/experimentInOfficeAgust.take6/worker_11/e0b71c8e-e380-4f41-8eb0-53908289851c.als.cnf.out
Reading from standard input... Use '--help' for help.
============================[ Problem Statistics ]=============================
|                                                                             |
|  Number of variables:         87638                                         |
|  Number of clauses:          161767                                         |
|  Parse time:                   0.03 s                                       |
|                                                                             |
============================[ Search Statistics ]==============================
| Conflicts |          ORIGINAL         |          LEARNT          | Progress |
|           |    Vars  Clauses Literals |    Limit  Clauses Lit/Cl |          |
===============================================================================
|       100 |   63653   109832   274606 |    40271      100     27 | 27.368 % |
|       250 |   63653   109832   274606 |    44298      250     45 | 27.368 % |
|       475 |   63653   109832   274606 |    48728      475     79 | 27.368 % |
|       812 |   63653   109832   274606 |    53601      812     81 | 27.368 % |
|      1318 |   63614   109678   274196 |    58961     1154     74 | 27.413 % |
|      2077 |   63614   109634   274106 |    64858     1910     88 | 27.413 % |
|      3216 |   63552   109502   273797 |    71343     3017    136 | 27.484 % |
|      4924 |   63552   109380   273475 |    78478     4707    131 | 27.484 % |
|      7486 |   63457   109204   273070 |    86326     7264    127 | 27.592 % |
===============================================================================
restarts              : 46
conflicts             : 10847          (5353 /sec)
decisions             : 42750          (0.00 % random) (21096 /sec)
propagations          : 18885712       (9319733 /sec)
conflict literals     : 1129086        (50.75 % deleted)
Memory used           : 36.94 MB
CPU time              : 2.02642 s

UNSATISFIABLE
